gil250_1
0 163 64 2 183 106 121 9 26 195 198 229 139 202 232 182 199 222 169 105 136 56 175 147 40 245 60 20 159 15 157 224 0 0 0 0 0 0 0 0 36 137 207 140 185 28 34 244 145 138 231 234 31 61 129 53 130 79 100 115 99 209 186 104 62 249 3 146 43 0 0 0 0 0 0 0 0 0 0 0 0 0 0 0 0 0 0 0 0 0 0 0 0 0 0 0 0 0 0 0 0 0 0 0 0 0 0 0 0 0 0 0 0 0 0 0 0 0 0 0 30 191 123 112 73 38 242 113 42 10 13 201 82 219 226 59 243 181 85 25 141 72 19 221 133 49 173 220 65 206 58 230 167 114 0 0 0 225 214 102 171 227 117 128 143 247 192 125 170 150 189 248 81 154 156 0 0 0 0 0 0 0 0 0 0 0 0 0 0 37 22 196 48 46 180 246 142 95 187 179 63 216 161 91 77 88 184 86 212 98 174 158 110 41 178 92 109 132 162 235 131 0 0 0 0 101 0 0 0 0 0 0 0 0 0 0 0